Maximize
150 g_1_2 - 150 g_2_1 + 200 d_1_2 - 200 d_2_1 + 1000 j_1_2 + 150 g_3_2 - 150 g_2_3 + 200 d_3_2 - 200 d_2_3 + 1000 j_3_2 + 150 g_10_2 - 150 g_2_10 + 200 d_10_2 - 200 d_2_10 + 1000 j_10_2 + 150 g_3_4 - 150 g_4_3 + 200 d_3_4 - 200 d_4_3 + 1000 j_3_4 + 150 g_5_4 - 150 g_4_5 + 200 d_5_4 - 200 d_4_5 + 1000 j_5_4 + 150 g_9_4 - 150 g_4_9 + 200 d_9_4 - 200 d_4_9 + 1000 j_9_4 + 150 g_5_6 - 150 g_6_5 + 200 d_5_6 - 200 d_6_5 + 1000 j_5_6 + 150 g_7_6 - 150 g_6_7 + 200 d_7_6 - 200 d_6_7 + 1000 j_7_6 + 150 g_8_6 - 150 g_6_8 + 200 d_8_6 - 200 d_6_8 + 1000 j_8_6 + 150 g_1_12 - 150 g_12_1 + 200 d_1_12 - 200 d_12_1 + 1000 j_1_12 + 150 g_8_12 - 150 g_12_8 + 200 d_8_12 - 200 d_12_8 + 1000 j_8_12 + 150 g_11_12 - 150 g_12_11 + 200 d_11_12 - 200 d_12_11 + 1000 j_11_12
Subject To
g_1_2 + g_2_1 + d_1_2 + d_2_1 + j_1_2 + j_2_1 <= 165
g_1_7 + g_7_1 + d_1_7 + d_7_1 + j_1_7 + j_7_1 <= 165
g_1_12 + g_12_1 + d_1_12 + d_12_1 + j_1_12 + j_12_1 <= 165
g_2_1 + g_1_2 + d_2_1 + d_1_2 + j_2_1 + j_1_2 <= 165
g_2_3 + g_3_2 + d_2_3 + d_3_2 + j_2_3 + j_3_2 <= 165
g_2_10 + g_10_2 + d_2_10 + d_10_2 + j_2_10 + j_10_2 <= 165
g_3_2 + g_2_3 + d_3_2 + d_2_3 + j_3_2 + j_2_3 <= 165
g_3_4 + g_4_3 + d_3_4 + d_4_3 + j_3_4 + j_4_3 <= 165
g_3_10 + g_10_3 + d_3_10 + d_10_3 + j_3_10 + j_10_3 <= 165
g_4_3 + g_3_4 + d_4_3 + d_3_4 + j_4_3 + j_3_4 <= 165
g_4_5 + g_5_4 + d_4_5 + d_5_4 + j_4_5 + j_5_4 <= 165
g_4_9 + g_9_4 + d_4_9 + d_9_4 + j_4_9 + j_9_4 <= 165
g_5_4 + g_4_5 + d_5_4 + d_4_5 + j_5_4 + j_4_5 <= 165
g_5_6 + g_6_5 + d_5_6 + d_6_5 + j_5_6 + j_6_5 <= 165
g_5_9 + g_9_5 + d_5_9 + d_9_5 + j_5_9 + j_9_5 <= 165
g_6_5 + g_5_6 + d_6_5 + d_5_6 + j_6_5 + j_5_6 <= 165
g_6_7 + g_7_6 + d_6_7 + d_7_6 + j_6_7 + j_7_6 <= 165
g_6_8 + g_8_6 + d_6_8 + d_8_6 + j_6_8 + j_8_6 <= 165
g_7_1 + g_1_7 + d_7_1 + d_1_7 + j_7_1 + j_1_7 <= 165
g_7_6 + g_6_7 + d_7_6 + d_6_7 + j_7_6 + j_6_7 <= 165
g_7_8 + g_8_7 + d_7_8 + d_8_7 + j_7_8 + j_8_7 <= 165
g_8_6 + g_6_8 + d_8_6 + d_6_8 + j_8_6 + j_6_8 <= 165
g_8_7 + g_7_8 + d_8_7 + d_7_8 + j_8_7 + j_7_8 <= 165
g_8_12 + g_12_8 + d_8_12 + d_12_8 + j_8_12 + j_12_8 <= 165
g_9_4 + g_4_9 + d_9_4 + d_4_9 + j_9_4 + j_4_9 <= 165
g_9_5 + g_5_9 + d_9_5 + d_5_9 + j_9_5 + j_5_9 <= 165
g_9_11 + g_11_9 + d_9_11 + d_11_9 + j_9_11 + j_11_9 <= 165
g_10_2 + g_2_10 + d_10_2 + d_2_10 + j_10_2 + j_2_10 <= 165
g_10_3 + g_3_10 + d_10_3 + d_3_10 + j_10_3 + j_3_10 <= 165
g_10_11 + g_11_10 + d_10_11 + d_11_10 + j_10_11 + j_11_10 <= 165
g_11_9 + g_9_11 + d_11_9 + d_9_11 + j_11_9 + j_9_11 <= 165
g_11_10 + g_10_11 + d_11_10 + d_10_11 + j_11_10 + j_10_11 <= 165
g_11_12 + g_12_11 + d_11_12 + d_12_11 + j_11_12 + j_12_11 <= 165
g_12_1 + g_1_12 + d_12_1 + d_1_12 + j_12_1 + j_1_12 <= 165
g_12_8 + g_8_12 + d_12_8 + d_8_12 + j_12_8 + j_8_12 <= 165
g_12_11 + g_11_12 + d_12_11 + d_11_12 + j_12_11 + j_11_12 <= 165
100 f1 + 0 f2 + 100 f3 + 0 f4 + 100 f5 + 0 f6 + 100 f7 + 100 f8 + 100 f9 + 300 f10 + 100 f11 + 0 f12 <= 850
g_1_2 - g_2_1 + g_1_7 - g_7_1 + g_1_12 - g_12_1 - 200 f1 = 0
d_1_2 - d_2_1 + d_1_7 - d_7_1 + d_1_12 - d_12_1 - 75 f1 = 0
j_1_2 - j_2_1 + j_1_7 - j_7_1 + j_1_12 - j_12_1 = 0
g_3_2 - g_2_3 + g_3_4 - g_4_3 + g_3_10 - g_10_3 - 200 f3 = 0
d_3_2 - d_2_3 + d_3_4 - d_4_3 + d_3_10 - d_10_3 - 75 f3 = 0
j_3_2 - j_2_3 + j_3_4 - j_4_3 + j_3_10 - j_10_3 = 0
g_5_4 - g_4_5 + g_5_6 - g_6_5 + g_5_9 - g_9_5 - 200 f5 = 0
d_5_4 - d_4_5 + d_5_6 - d_6_5 + d_5_9 - d_9_5 - 75 f5 = 0
j_5_4 - j_4_5 + j_5_6 - j_6_5 + j_5_9 - j_9_5 = 0
g_7_1 - g_1_7 + g_7_6 - g_6_7 + g_7_8 - g_8_7 - 200 f7 = 0
d_7_1 - d_1_7 + d_7_6 - d_6_7 + d_7_8 - d_8_7 - 75 f7 = 0
j_7_1 - j_1_7 + j_7_6 - j_6_7 + j_7_8 - j_8_7 = 0
g_8_6 - g_6_8 + g_8_7 - g_7_8 + g_8_12 - g_12_8 - 200 f8 = 0
d_8_6 - d_6_8 + d_8_7 - d_7_8 + d_8_12 - d_12_8 - 75 f8 = 0
j_8_6 - j_6_8 + j_8_7 - j_7_8 + j_8_12 - j_12_8 = 0
g_9_4 - g_4_9 + g_9_5 - g_5_9 + g_9_11 - g_11_9 - 200 f9 = 0
d_9_4 - d_4_9 + d_9_5 - d_5_9 + d_9_11 - d_11_9 - 75 f9 = 0
j_9_4 - j_4_9 + j_9_5 - j_5_9 + j_9_11 - j_11_9 = 0
g_10_2 - g_2_10 + g_10_3 - g_3_10 + g_10_11 - g_11_10 + 70 f10 = 0
d_10_2 - d_2_10 + d_10_3 - d_3_10 + d_10_11 - d_11_10 + 20 f10 = 0
j_10_2 - j_2_10 + j_10_3 - j_3_10 + j_10_11 - j_11_10 - 60 f10 = 0
g_11_9 - g_9_11 + g_11_10 - g_10_11 + g_11_12 - g_12_11 - 200 f11 = 0
d_11_9 - d_9_11 + d_11_10 - d_10_11 + d_11_12 - d_12_11 - 75 f11 = 0
j_11_9 - j_9_11 + j_11_10 - j_10_11 + j_11_12 - j_12_11 = 0
g_1_2 + g_3_2 + g_10_2 + g_3_4 + g_5_4 + g_9_4 + g_5_6 + g_7_6 + g_8_6 + g_1_12 + g_8_12 + g_11_12 - 200 f1 - 200 f3 - 200 f5 - 200 f7 - 200 f8 - 200 f9 - 200 f11 <= 0
d_1_2 + d_3_2 + d_10_2 + d_3_4 + d_5_4 + d_9_4 + d_5_6 + d_7_6 + d_8_6 + d_1_12 + d_8_12 + d_11_12 - 75 f1 - 75 f3 - 75 f5 - 75 f7 - 75 f8 - 75 f9 - 75 f11 <= 0
j_1_2 + j_3_2 + j_10_2 + j_3_4 + j_5_4 + j_9_4 + j_5_6 + j_7_6 + j_8_6 + j_1_12 + j_8_12 + j_11_12 - 60 f10 <= 0
g_1_2 >= 0
d_1_2 >= 0
j_1_2 >= 0
g_1_7 >= 0
d_1_7 >= 0
j_1_7 >= 0
g_1_12 >= 0
d_1_12 >= 0
j_1_12 >= 0
f1 >= 0
f1 <= 1
g_2_1 >= 0
d_2_1 >= 0
j_2_1 >= 0
g_2_3 >= 0
d_2_3 >= 0
j_2_3 >= 0
g_2_10 >= 0
d_2_10 >= 0
j_2_10 >= 0
f2 >= 0
f2 <= 1
g_3_2 >= 0
d_3_2 >= 0
j_3_2 >= 0
g_3_4 >= 0
d_3_4 >= 0
j_3_4 >= 0
g_3_10 >= 0
d_3_10 >= 0
j_3_10 >= 0
f3 >= 0
f3 <= 1
g_4_3 >= 0
d_4_3 >= 0
j_4_3 >= 0
g_4_5 >= 0
d_4_5 >= 0
j_4_5 >= 0
g_4_9 >= 0
d_4_9 >= 0
j_4_9 >= 0
f4 >= 0
f4 <= 1
g_5_4 >= 0
d_5_4 >= 0
j_5_4 >= 0
g_5_6 >= 0
d_5_6 >= 0
j_5_6 >= 0
g_5_9 >= 0
d_5_9 >= 0
j_5_9 >= 0
f5 >= 0
f5 <= 1
g_6_5 >= 0
d_6_5 >= 0
j_6_5 >= 0
g_6_7 >= 0
d_6_7 >= 0
j_6_7 >= 0
g_6_8 >= 0
d_6_8 >= 0
j_6_8 >= 0
f6 >= 0
f6 <= 1
g_7_1 >= 0
d_7_1 >= 0
j_7_1 >= 0
g_7_6 >= 0
d_7_6 >= 0
j_7_6 >= 0
g_7_8 >= 0
d_7_8 >= 0
j_7_8 >= 0
f7 >= 0
f7 <= 1
g_8_6 >= 0
d_8_6 >= 0
j_8_6 >= 0
g_8_7 >= 0
d_8_7 >= 0
j_8_7 >= 0
g_8_12 >= 0
d_8_12 >= 0
j_8_12 >= 0
f8 >= 0
f8 <= 1
g_9_4 >= 0
d_9_4 >= 0
j_9_4 >= 0
g_9_5 >= 0
d_9_5 >= 0
j_9_5 >= 0
g_9_11 >= 0
d_9_11 >= 0
j_9_11 >= 0
f9 >= 0
f9 <= 1
g_10_2 >= 0
d_10_2 >= 0
j_10_2 >= 0
g_10_3 >= 0
d_10_3 >= 0
j_10_3 >= 0
g_10_11 >= 0
d_10_11 >= 0
j_10_11 >= 0
f10 >= 0
f10 <= 1
g_11_9 >= 0
d_11_9 >= 0
j_11_9 >= 0
g_11_10 >= 0
d_11_10 >= 0
j_11_10 >= 0
g_11_12 >= 0
d_11_12 >= 0
j_11_12 >= 0
f11 >= 0
f11 <= 1
g_12_1 >= 0
d_12_1 >= 0
j_12_1 >= 0
g_12_8 >= 0
d_12_8 >= 0
j_12_8 >= 0
g_12_11 >= 0
d_12_11 >= 0
j_12_11 >= 0
f12 >= 0
f12 <= 1
End
